149
10000
2252
4819
2975
490
4863
4112
1230
752
4144
540
672
2058
1680
316
1883
3503
1117
1175
996
806
821
1733
4793
608
3591
740
4752
49
1997
4693
320
2580
1221
1219
161
566
2609
1674
1815
2910
642
4827
1718
1112
13
1405
1362
604
2174
33
2317
2020
1673
233
944
1732
2301
519
564
4914
2
2280
2263
73
1750
1911
2894
2240
415
536
3614
34
986
2668
188
1627
2752
3194
4583
2345
177
1443
420
1807
673
1822
2096
3528
4073
2695
560
1393
1836
3167
185
4425
3064
1044
858
108
4478
260
2504
692
3156
3898
2924
4417
3701
849
2594
2890
546
1284
4563
3436
2603
694
2470
1349
896
1142
4922
531
1504
3535
2849
3912
435
701
4543
2094
895
274
3796
143
1050
898
4237
1646
1799
3283
4471
968
3284
4272
4272
2426
3843
